
Gurobi 11.0.2 (win64) logging started Wed Aug 14 12:03:56 2024

Set parameter LogFile to value "D:\Documenti\Scuola\Laurea magistrale unibs\laurea-unibs-mkfsp\output\2024-08-14T08_52_45.517425\logs\instance08_bucket1.log"
Set parameter TimeLimit to value 500
Set parameter MIPGap to value 0
Gurobi Optimizer version 11.0.2 build v11.0.2rc0 (win64 - Windows 10.0 (19045.2))

CPU model: Intel(R) Core(TM) i5-4670 CPU @ 3.40GHz, instruction set [SSE2|AVX|AVX2]
Thread count: 4 physical cores, 4 logical processors, using up to 4 threads

Optimize a model with 1944 rows, 7816 columns and 218844 nonzeros
Model fingerprint: 0x77af2db5
Variable types: 0 continuous, 7816 integer (7728 binary)
Coefficient statistics:
  Matrix range     [1e+00, 1e+03]
  Objective range  [7e+02, 8e+03]
  Bounds range     [1e+00, 1e+00]
  RHS range        [1e+00, 7e+04]
Found heuristic solution: objective -0.0000000
Presolve time: 0.40s
Presolved: 1944 rows, 7816 columns, 218844 nonzeros
Variable types: 0 continuous, 7816 integer (7728 binary)

Root relaxation: objective 5.378780e+05, 1298 iterations, 0.04 seconds (0.03 work units)

    Nodes    |    Current Node    |     Objective Bounds      |     Work
 Expl Unexpl |  Obj  Depth IntInf | Incumbent    BestBd   Gap | It/Node Time

H    0     0                    537878.00000 537878.000  0.00%     -    0s
     0     0 537878.000    0  534 537878.000 537878.000  0.00%     -    0s

Explored 1 nodes (1298 simplex iterations) in 0.48 seconds (0.43 work units)
Thread count was 4 (of 4 available processors)

Solution count 2: 537878 -0 

Optimal solution found (tolerance 0.00e+00)
Best objective 5.378780000000e+05, best bound 5.378780000000e+05, gap 0.0000%
